docs/2022-03-21-ModelsBigM/BigM_18.log
CPXPARAM_MIP_Tolerances_MIPGap                   0
Tried aggregator 4 times.
MIP Presolve eliminated 72 rows and 5 columns.
MIP Presolve modified 102 coefficients.
Aggregator did 5 substitutions.
Reduced MIP has 211 rows, 144 columns, and 566 nonzeros.
Reduced MIP has 82 binaries, 0 generals, 0 SOSs, and 0 indicators.
Presolve time = 0.00 sec. (0.72 ticks)
Found incumbent of value 15.000000 after 0.00 sec. (1.52 ticks)
Probing time = 0.02 sec. (0.47 ticks)
Tried aggregator 1 time.
Reduced MIP has 211 rows, 144 columns, and 566 nonzeros.
Reduced MIP has 82 binaries, 0 generals, 0 SOSs, and 0 indicators.
Presolve time = 0.00 sec. (0.33 ticks)
Probing time = 0.00 sec. (0.40 ticks)
Clique table members: 163.
MIP emphasis: balance optimality and feasibility.
MIP search method: dynamic search.
Parallel mode: deterministic, using up to 8 threads.
Root relaxation solution time = 0.00 sec. (0.46 ticks)

        Nodes                                         Cuts/
   Node  Left     Objective  IInf  Best Integer    Best Bound    ItCnt     Gap

*     0+    0                           15.0000        5.0000            66.67%
*     0+    0                           12.0000        5.0000            58.33%
      0     0        5.0000     4       12.0000        5.0000       38   58.33%
*     0+    0                           10.0000        5.0000            50.00%
      0     0        9.0000     1       10.0000      Cuts: 41       77   10.00%
*     0+    0                            9.0000        9.0000             0.00%
      0     0        cutoff              9.0000        9.0000       77    0.00%
Elapsed time = 0.05 sec. (4.85 ticks, tree = 0.01 MB, solutions = 4)

Clique cuts applied:  19
Implied bound cuts applied:  13
Mixed integer rounding cuts applied:  3

Root node processing (before b&c):
  Real time             =    0.05 sec. (4.87 ticks)
Parallel b&c, 8 threads:
  Real time             =    0.00 sec. (0.00 ticks)
  Sync time (average)   =    0.00 sec.
  Wait time (average)   =    0.00 sec.
                          ------------
Total (root+branch&cut) =    0.05 sec. (4.87 ticks)
